data;


param d:= 100;
param r:=5;
param p:=0.740000;
param M:=1000;
param U:=
         1         1       -1.753844e+00
         2         1        2.961897e+00
         3         1       -1.102620e+00
         4         1        4.127498e-01
         5         1        1.001006e+00
         6         1        5.960805e-01
         7         1        1.297372e+00
         8         1       -1.069319e-01
         9         1       -1.560553e+00
        10         1        2.995448e-01
        11         1        4.876800e-01
        12         1       -7.528190e-02
        13         1       -5.330866e-01
        14         1       -1.595845e+00
        15         1       -1.673860e-01
        16         1       -1.088381e+00
        17         1       -2.261212e-01
        18         1        1.103941e+00
        19         1       -7.202337e-01
        20         1       -1.685323e+00
        21         1        9.828433e-02
        22         1       -1.084972e+00
        23         1       -2.335511e-01
        24         1       -2.545599e-01
        25         1        7.009759e-01
        26         1       -8.475855e-01
        27         1       -1.584529e+00
        28         1        4.054082e-01
        29         1       -4.272439e-01
        30         1       -1.746111e+00
        31         1        5.210677e-02
        32         1       -7.130136e-01
        33         1        2.878799e-01
        34         1       -3.841740e-01
        35         1        2.055033e+00
        36         1        8.896227e-01
        37         1       -1.698489e+00
        38         1        1.101117e+00
        39         1        3.023617e-01
        40         1       -8.109219e-01
        41         1        2.242819e-01
        42         1       -3.042568e-01
        43         1       -1.965418e-01
        44         1       -8.543379e-01
        45         1        6.866089e-01
        46         1        2.936003e-01
        47         1        3.885470e-01
        48         1       -7.415519e-02
        49         1       -1.159589e+00
        50         1        6.828710e-01
        51         1        3.077595e-01
        52         1        4.276441e-01
        53         1       -2.943177e+00
        54         1       -1.165696e+00
        55         1       -2.003506e-01
        56         1       -1.622619e-01
        57         1       -6.592164e-01
        58         1       -2.028992e-01
        59         1        4.042990e-01
        60         1       -4.914434e-01
        61         1       -1.274797e+00
        62         1        8.617125e-01
        63         1       -1.046321e+00
        64         1        5.918982e-02
        65         1       -8.852348e-01
        66         1       -9.111612e-01
        67         1        4.700917e-01
        68         1        6.459101e-01
        69         1       -6.049362e-01
        70         1        1.021678e+00
        71         1       -1.552593e+00
        72         1       -1.478852e-01
        73         1       -3.821331e-01
        74         1        4.943740e-01
        75         1        3.470430e-01
        76         1        7.478561e-01
        77         1        3.210540e-01
        78         1       -4.577170e-01
        79         1        5.929660e-01
        80         1        3.692409e-01
        81         1       -1.332901e+00
        82         1       -3.762528e-01
        83         1        1.793136e+00
        84         1       -6.085027e-01
        85         1       -1.565043e+00
        86         1        2.476357e-01
        87         1       -2.730240e-01
        88         1       -7.087088e-01
        89         1        3.754434e-01
        90         1        2.007062e-03
        91         1       -9.182285e-01
        92         1       -9.893588e-01
        93         1       -6.372575e-01
        94         1        2.363395e+00
        95         1       -4.604366e-01
        96         1        1.538973e-01
        97         1       -4.126351e-01
        98         1        3.753853e-01
        99         1        6.307659e-01
       100         1       -3.268742e-01
         1         2        2.053074e-01
         2         2        1.705906e+00
         3         2       -6.075947e-01
         4         2        8.700158e-01
         5         2        3.074269e-01
         6         2        7.073597e-01
         7         2        6.271234e-02
         8         2       -4.377243e-02
         9         2       -1.385067e+00
        10         2       -3.681947e-01
        11         2       -2.134481e+00
        12         2        1.031512e+00
        13         2       -2.307573e-01
        14         2        1.039547e+00
        15         2        6.130884e-01
        16         2       -8.647436e-01
        17         2       -1.622805e+00
        18         2        2.220686e-01
        19         2       -6.068266e-01
        20         2        4.467756e-01
        21         2        1.424324e+00
        22         2       -1.169723e+00
        23         2        1.776408e+00
        24         2        1.077822e+00
        25         2       -5.095239e-01
        26         2       -1.631375e+00
        27         2       -2.617006e-01
        28         2        5.560288e-01
        29         2       -9.560441e-01
        30         2        5.987576e-01
        31         2        1.359791e-01
        32         2       -1.700461e+00
        33         2        2.012342e+00
        34         2       -1.096482e+00
        35         2        6.515466e-01
        36         2        1.767440e-02
        37         2        3.919515e-01
        38         2        2.465081e+00
        39         2        8.945955e-01
        40         2        5.663051e-01
        41         2       -1.894795e-01
        42         2        1.276131e+00
        43         2        1.446616e+00
        44         2       -5.685016e-01
        45         2        1.155450e+00
        46         2       -5.304566e-02
        47         2        1.036333e+00
        48         2       -3.190358e-01
        49         2        1.882768e+00
        50         2        1.575419e+00
        51         2       -2.130634e-01
        52         2        3.688989e-01
        53         2        2.353616e+00
        54         2        1.580039e+00
        55         2        4.506856e-01
        56         2        3.109554e-01
        57         2        5.357388e-02
        58         2       -7.049942e-01
        59         2       -4.956131e-01
        60         2        8.390939e-02
        61         2        1.234514e-01
        62         2       -1.376776e-01
        63         2       -4.207977e-02
        64         2        5.931856e-01
        65         2       -9.190257e-01
        66         2       -3.738727e-01
        67         2       -6.324179e-01
        68         2       -1.808575e+00
        69         2        1.274857e+00
        70         2       -1.820168e+00
        71         2        9.114804e-01
        72         2        8.987599e-01
        73         2        6.774830e-01
        74         2       -7.779005e-02
        75         2       -3.132338e-01
        76         2        5.448440e-01
        77         2       -8.957066e-01
        78         2       -1.644085e+00
        79         2       -4.169932e-01
        80         2       -2.263887e-01
        81         2        7.180040e-02
        82         2        3.744036e-01
        83         2        1.436133e-01
        84         2        1.785308e-01
        85         2       -1.222944e+00
        86         2       -2.403990e+00
        87         2       -4.637345e-01
        88         2        1.024244e+00
        89         2       -5.407004e-01
        90         2       -8.055252e-03
        91         2       -8.228764e-01
        92         2        2.226364e+00
        93         2       -6.374526e-01
        94         2        1.861481e-01
        95         2       -8.949003e-01
        96         2       -7.302755e-01
        97         2        4.728628e-02
        98         2       -1.247083e+00
        99         2       -1.346169e+00
       100         2       -5.194277e-01
         1         3        5.583378e-01
         2         3       -5.177297e-01
         3         3       -8.042571e-01
         4         3       -6.749898e-01
         5         3        2.885695e-01
         6         3        1.749198e+00
         7         3        7.785934e-01
         8         3        2.155791e+00
         9         3        1.139066e-01
        10         3        7.108535e-01
        11         3       -6.206356e-02
        12         3        5.615972e-01
        13         3        4.836361e-01
        14         3       -7.348500e-01
        15         3       -5.984995e-01
        16         3       -1.359375e+00
        17         3        1.655486e+00
        18         3        2.528153e-01
        19         3        1.161878e+00
        20         3        9.000380e-01
        21         3        5.692264e-01
        22         3       -1.171997e+00
        23         3       -1.253794e-01
        24         3        2.680204e-02
        25         3       -1.394128e+00
        26         3        1.173194e+00
        27         3        1.329134e-01
        28         3       -2.807765e-01
        29         3       -9.815318e-01
        30         3        2.224938e-01
        31         3        5.791319e-02
        32         3        1.228913e+00
        33         3       -1.389664e+00
        34         3        1.090461e+00
        35         3        1.033192e+00
        36         3        1.224997e+00
        37         3       -3.578324e-01
        38         3       -1.791770e+00
        39         3        1.811058e+00
        40         3        8.338519e-01
        41         3        1.749043e+00
        42         3        1.383305e-01
        43         3        5.034869e-01
        44         3       -1.442428e-01
        45         3        8.990106e-01
        46         3        1.451042e+00
        47         3        9.019542e-02
        48         3       -3.042568e-01
        49         3        1.536398e+00
        50         3       -1.028105e+00
        51         3        1.005176e-01
        52         3        1.640883e+00
        53         3        2.853818e+00
        54         3       -2.679701e-01
        55         3       -9.571334e-01
        56         3        2.487348e+00
        57         3        4.541798e-01
        58         3        1.136980e+00
        59         3        6.844041e-03
        60         3        1.152561e+00
        61         3       -7.308587e-01
        62         3        2.753512e-02
        63         3       -8.326681e-01
        64         3        4.516811e-01
        65         3       -1.113649e+00
        66         3       -1.297610e+00
        67         3       -6.531365e-01
        68         3       -1.706241e+00
        69         3        5.147485e-02
        70         3       -2.325280e-01
        71         3       -1.536451e+00
        72         3       -1.489442e+00
        73         3       -1.179395e+00
        74         3       -4.394114e-01
        75         3       -2.698738e+00
        76         3       -4.240543e-01
        77         3       -1.039740e+00
        78         3       -3.742375e-02
        79         3       -3.310112e-01
        80         3       -1.388398e+00
        81         3       -1.585628e+00
        82         3        7.370478e-01
        83         3        1.969408e+00
        84         3       -1.079440e+00
        85         3        4.322800e-01
        86         3        1.286994e+00
        87         3       -5.786666e-01
        88         3        7.433455e-01
        89         3        1.234349e+00
        90         3       -5.731949e-01
        91         3        5.665962e-01
        92         3       -1.076830e+00
        93         3       -2.582472e-01
        94         3        7.932365e-01
        95         3        1.175922e+00
        96         3       -1.327295e-02
        97         3       -6.929642e-01
        98         3       -1.691048e+00
        99         3        4.512048e-01
       100         3        7.114707e-01
         1         4        4.155569e-01
         2         4       -1.398833e+00
         3         4        4.399796e-02
         4         4        1.659381e+00
         5         4       -9.230769e-01
         6         4       -5.049904e-01
         7         4        1.081184e+00
         8         4       -1.365098e-02
         9         4       -7.347909e-01
        10         4       -1.853655e-01
        11         4       -4.682973e-02
        12         4       -5.574523e-01
        13         4       -5.390865e-01
        14         4       -1.685500e+00
        15         4        1.328644e+00
        16         4       -6.447419e-01
        17         4        1.219017e+00
        18         4       -2.327346e-01
        19         4        3.995561e-01
        20         4        1.229500e+00
        21         4       -1.266071e+00
        22         4        8.428097e-01
        23         4       -1.876229e-01
        24         4       -1.122042e+00
        25         4        8.104420e-01
        26         4       -8.288695e-01
        27         4        1.330000e+00
        28         4       -1.005514e+00
        29         4       -9.196025e-01
        30         4        1.312766e+00
        31         4        4.327306e-01
        32         4        1.365177e+00
        33         4       -2.853956e-01
        34         4       -9.871614e-01
        35         4        1.992571e-01
        36         4        1.168718e+00
        37         4        4.750482e-01
        38         4       -1.886817e+00
        39         4        2.526583e+00
        40         4       -1.071461e+00
        41         4       -3.681525e-01
        42         4       -2.170173e+00
        43         4        1.149243e+00
        44         4       -1.301242e+00
        45         4       -3.849271e-01
        46         4        1.426521e-01
        47         4       -6.632099e-01
        48         4       -1.062722e+00
        49         4        7.687220e-01
        50         4        5.498490e-01
        51         4       -9.105144e-01
        52         4       -9.404537e-01
        53         4       -9.954285e-01
        54         4       -1.191936e+00
        55         4       -1.887396e-01
        56         4        3.325596e-01
        57         4       -3.308151e-01
        58         4        5.301540e-01
        59         4        3.211154e-01
        60         4       -1.639314e-01
        61         4        3.766638e-01
        62         4       -3.281985e-01
        63         4        1.119559e+00
        64         4        5.699818e-02
        65         4       -1.143790e+00
        66         4        7.268358e-01
        67         4        7.226402e-01
        68         4        7.247923e-01
        69         4       -7.921705e-01
        70         4        1.367591e-01
        71         4       -3.700333e-01
        72         4        5.138068e-01
        73         4        5.527215e-03
        74         4        7.735695e-01
        75         4        5.423541e-01
        76         4       -8.207780e-01
        77         4        3.559667e-01
        78         4       -1.503249e+00
        79         4        1.600199e+00
        80         4       -1.362696e+00
        81         4       -2.871426e-01
        82         4       -2.006534e-01
        83         4       -1.834423e+00
        84         4       -9.280584e-01
        85         4        3.225391e-01
        86         4        1.594098e+00
        87         4        1.985780e-01
        88         4        1.622844e+00
        89         4       -2.772581e-01
        90         4        7.659307e-01
        91         4        5.398138e-01
        92         4        4.539045e-01
        93         4        2.976457e-01
        94         4       -1.595159e+00
        95         4        1.354011e+00
        96         4       -5.762065e-01
        97         4        6.779274e-01
        98         4        5.464513e-01
        99         4        6.635407e-01
       100         4       -2.104029e-02
         1         5       -7.102419e-01
         2         5       -7.055026e-01
         3         5       -1.043652e-01
         4         5        5.612927e-01
         5         5       -2.091237e+00
         6         5        1.336034e+00
         7         5       -9.391578e-01
         8         5       -2.507414e-01
         9         5        1.230925e+00
        10         5        3.956987e-01
        11         5        1.676517e+00
        12         5        5.826976e-01
        13         5       -2.776633e-01
        14         5        3.630543e-01
        15         5       -1.624338e-01
        16         5       -4.294940e-01
        17         5        1.420425e+00
        18         5        1.035015e+00
        19         5       -9.381404e-01
        20         5       -6.816924e-01
        21         5        9.243699e-01
        22         5        1.256366e+00
        23         5        1.295523e-02
        24         5        8.950803e-01
        25         5        2.785676e-01
        26         5        1.472958e-01
        27         5        3.903116e-01
        28         5       -1.204290e+00
        29         5        5.274089e-01
        30         5       -7.158317e-01
        31         5        3.397593e-01
        32         5       -5.030440e-01
        33         5       -6.030934e-02
        34         5       -2.309907e+00
        35         5       -2.045823e+00
        36         5        1.032663e+00
        37         5       -1.184497e+00
        38         5       -1.378669e+00
        39         5        3.142147e-01
        40         5       -1.214929e-02
        41         5        2.203154e-01
        42         5       -1.345431e+00
        43         5       -2.196509e-01
        44         5        1.745291e+00
        45         5        8.197413e-01
        46         5       -3.968758e-01
        47         5        8.129511e-01
        48         5        7.858374e-01
        49         5       -5.273390e-01
        50         5        4.965636e-01
        51         5        6.114434e-01
        52         5       -4.269045e-01
        53         5        9.238973e-01
        54         5        1.581970e+00
        55         5       -1.196257e-01
        56         5        1.187136e-01
        57         5        3.327757e-01
        58         5       -1.214528e+00
        59         5       -1.658510e+00
        60         5        9.877952e-01
        61         5        2.380662e-01
        62         5        1.546705e+00
        63         5        7.693820e-01
        64         5        1.242317e+00
        65         5       -1.842046e+00
        66         5       -1.870807e+00
        67         5        4.453529e-02
        68         5       -3.038583e-01
        69         5       -7.127161e-01
        70         5        1.714156e+00
        71         5        1.825281e+00
        72         5       -1.009241e-01
        73         5       -3.584764e-01
        74         5        1.815771e+00
        75         5        7.368688e-01
        76         5       -2.191085e+00
        77         5        1.688353e+00
        78         5        6.651865e-01
        79         5        4.176424e-01
        80         5       -6.443426e-01
        81         5        9.097570e-01
        82         5       -2.422325e-01
        83         5        1.262519e+00
        84         5        9.335986e-01
        85         5        2.519442e+00
        86         5       -6.094796e-01
        87         5       -1.348587e+00
        88         5       -1.202696e+00
        89         5        2.205878e-01
        90         5        9.171459e-01
        91         5       -1.016663e+00
        92         5        5.174746e-01
        93         5        2.498058e-01
        94         5       -8.090095e-01
        95         5       -3.687336e-01
        96         5        7.530066e-01
        97         5       -1.089216e+00
        98         5        2.200706e-01
        99         5       -2.162310e+00
       100         5       -4.821078e-01
;

param theta:=
    1       -7.019119e-01
    2        3.570425e-01
    3        6.789505e-01
    4       -1.280644e-01
    5        1.323260e-01
;
param X_true:=
    1        1.536230e+00
    2       -1.735638e+00
    3       -8.490493e-03
    4       -5.756000e-01
    5       -5.554406e-01
    6        1.263244e+00
    7       -6.223599e-01
    8        1.491672e+00
    9        9.351637e-01
   10        2.170191e-01
   11       -9.187029e-01
   12        9.509275e-01
   13        6.524503e-01
   14        1.256272e+00
   15       -2.616089e-01
   16       -4.420157e-01
   17        7.351467e-01
   18       -3.571680e-01
   19        9.024262e-01
   20        1.705887e+00
   21        1.110491e+00
   22       -3.934985e-01
   23        7.388010e-01
   24        8.438400e-01
   25       -1.687416e+00
   26        9.346407e-01
   27        9.903261e-01
   28       -3.072568e-01
   29       -5.203141e-01
   30        1.327618e+00
   31        4.083777e-02
   32        4.863106e-01
   33       -3.985192e-01
   34        4.392945e-01
   35       -8.045693e-01
   36        2.005631e-01
   37        8.716064e-01
   38       -1.050071e+00
   39        1.054810e+00
   40        1.473143e+00
   41        1.038736e+00
   42        8.630005e-01
   43        8.200585e-01
   44        6.963471e-01
   45        6.987579e-01
   46        6.893791e-01
   47        3.510355e-01
   48       -2.835070e-02
   49        2.361069e+00
   50       -6.195643e-01
   51       -2.633195e-02
   52        1.009570e+00
   53        5.093527e+00
   54        1.562399e+00
   55       -3.399626e-01
   56        1.886824e+00
   57        8.766061e-01
   58        4.340499e-01
   59       -7.166779e-01
   60        1.309146e+00
   61        4.259206e-01
   62       -3.886082e-01
   63        1.124941e-01
   64        6.340069e-01
   65       -5.601586e-01
   66       -7.155849e-01
   67       -1.085862e+00
   68       -2.390592e+00
   69        9.218767e-01
   70       -1.315567e+00
   71        6.609666e-01
   72       -6.657148e-01
   73       -3.387806e-01
   74       -5.319129e-01
   75       -2.159690e+00
   76       -8.031336e-01
   77       -1.073263e+00
   78       -1.060589e-02
   79       -9.394979e-01
   80       -1.193409e+00
   81        4.180911e-02
   82        8.918361e-01
   83        5.317712e-01
   84        3.628623e-04
   85        1.247458e+00
   86       -4.431368e-01
   87       -5.707040e-01
   88        1.000868e+00
   89        4.461769e-01
   90       -3.701820e-01
   91        5.317425e-01
   92        7.685811e-01
   93        3.930182e-02
   94       -9.566342e-01
   95        5.798676e-01
   96       -2.043395e-01
   97       -3.949217e-01
   98       -1.897746e+00
   99       -9.881417e-01
  100        4.659317e-01
;
param X:=
    1       -1.234651e+00
    2        7.925268e-01
    3       -1.003449e+00
    4       -5.756000e-01
    5       -5.554406e-01
    6       -7.567154e-02
    7        6.587774e-01
    8        3.020147e+00
    9       -1.021687e-01
   10        8.575021e-01
   11        8.144138e-01
   12        9.509275e-01
   13       -6.223820e-01
   14        1.256272e+00
   15        1.412393e+00
   16       -2.311587e-01
   17       -6.730819e-01
   18        1.285007e+00
   19       -6.010784e-01
   20       -1.026122e+00
   21        1.110491e+00
   22       -8.148120e-02
   23        5.322955e-01
   24        9.251024e-02
   25        2.452389e+00
   26       -7.220000e-01
   27       -2.408773e-01
   28        1.403247e-01
   29       -1.314063e+00
   30        1.327618e+00
   31       -2.289877e-02
   32        4.863106e-01
   33        4.442858e-01
   34        1.117942e-01
   35        9.105387e-02
   36        9.666405e-01
   37        8.716064e-01
   38       -1.062234e+00
   39        2.280061e+00
   40        2.987101e-01
   41       -1.411835e+00
   42       -7.717227e-01
   43        8.200585e-01
   44        6.963471e-01
   45       -3.277016e-02
   46        6.256449e-01
   47       -1.393819e+00
   48       -2.835070e-02
   49       -8.951876e-02
   50       -9.443996e-02
   51       -2.633195e-02
   52        1.009570e+00
   53       -3.880258e-02
   54        1.476945e+00
   55       -6.763969e-01
   56        1.886824e+00
   57       -7.788739e-01
   58       -1.050219e+00
   59       -9.021393e-01
   60        2.779126e-01
   61        1.651570e+00
   62       -3.886082e-01
   63       -1.155317e+00
   64        5.843642e-01
   65        1.162636e+00
   66       -1.025111e+00
   67       -6.987662e-01
   68       -2.390592e+00
   69       -6.869524e-01
   70       -1.315567e+00
   71        6.609666e-01
   72        1.156649e+00
   73       -6.509948e-01
   74        9.933035e-02
   75       -1.184304e+00
   76        1.904342e-01
   77        1.518352e+00
   78        6.946778e-02
   79        1.144902e-01
   80       -6.128627e-01
   81        3.218329e-01
   82        8.918361e-01
   83        5.317712e-01
   84        2.255133e-01
   85       -1.050990e+00
   86        4.543447e-01
   87        3.439466e-01
   88        1.000868e+00
   89        1.097393e+00
   90       -3.701820e-01
   91        5.317425e-01
   92        9.939758e-01
   93       -6.266724e-01
   94       -9.566342e-01
   95        5.798676e-01
   96       -2.043395e-01
   97       -1.641717e-01
   98        6.762650e-02
   99       -1.139878e+00
  100        2.938488e-01
;
param outliervec:=
    1    1
    2    1
    3    1
    4    0
    5    0
    6    1
    7    1
    8    1
    9    1
   10    1
   11    1
   12    0
   13    1
   14    0
   15    1
   16    1
   17    1
   18    1
   19    1
   20    1
   21    0
   22    1
   23    1
   24    1
   25    1
   26    1
   27    1
   28    1
   29    1
   30    0
   31    1
   32    0
   33    1
   34    1
   35    1
   36    1
   37    0
   38    1
   39    1
   40    1
   41    1
   42    1
   43    0
   44    0
   45    1
   46    1
   47    1
   48    0
   49    1
   50    1
   51    0
   52    0
   53    1
   54    1
   55    1
   56    0
   57    1
   58    1
   59    1
   60    1
   61    1
   62    0
   63    1
   64    1
   65    1
   66    1
   67    1
   68    0
   69    1
   70    0
   71    0
   72    1
   73    1
   74    1
   75    1
   76    1
   77    1
   78    1
   79    1
   80    1
   81    1
   82    0
   83    0
   84    1
   85    1
   86    1
   87    1
   88    0
   89    1
   90    0
   91    0
   92    1
   93    1
   94    0
   95    0
   96    0
   97    1
   98    1
   99    1
  100    1
;